
Gurobi 10.0.1 (linux64) logging started Sun Nov 26 15:43:21 2023

Set parameter LogFile to value "ArtificialInstance/ExperimentV2/S2T3K2/AdRo/gurobiDoRo59.txt"
Gurobi Optimizer version 10.0.1 build v10.0.1rc0 (linux64)

CPU model: AMD EPYC 7H12 64-Core Processor, instruction set [SSE2|AVX|AVX2]
Thread count: 128 physical cores, 128 logical processors, using up to 32 threads

Academic license 656792 - for non-commercial use only - registered to b.___@student.vu.nl
Optimize a model with 5150 rows, 5050 columns and 19465 nonzeros
Model fingerprint: 0x8aacac4f
Variable types: 1 continuous, 5049 integer (5049 binary)
Coefficient statistics:
  Matrix range     [1e+00, 4e+01]
  Objective range  [1e+00, 2e+01]
  Bounds range     [1e+00, 1e+00]
  RHS range        [1e+00, 1e+00]
Presolve removed 2345 rows and 2210 columns
Presolve time: 0.05s
Presolved: 2805 rows, 2840 columns, 10970 nonzeros
Variable types: 1 continuous, 2839 integer (2839 binary)
Found heuristic solution: objective 81.1392448

Root relaxation: objective 7.634279e+01, 1377 iterations, 0.05 seconds (0.04 work units)

    Nodes    |    Current Node    |     Objective Bounds      |     Work
 Expl Unexpl |  Obj  Depth IntInf | Incumbent    BestBd   Gap | It/Node Time

H    0     0                      76.3427890   42.51849  44.3%     -    0s
     0     0          -    0        76.34279   76.34279  0.00%     -    0s

Explored 1 nodes (1873 simplex iterations) in 0.15 seconds (0.10 work units)
Thread count was 32 (of 128 available processors)

Solution count 2: 76.3428 81.1392 

Optimal solution found (tolerance 1.00e-04)
Best objective 7.634278902403e+01, best bound 7.634278902403e+01, gap 0.0000%
